17	4	3
23	25	25	32	35	25	33	
0	0	0	0	0	8	1	8	2	6	2	3	2	3	4
6	2	2	2	2	10	7	5	8	9	8	1	5
4	1	9	1	1	2	1	4	2	1	4	2	6	11
5	6	10	6	7	9	4	6	3	8	8	1	13
6	7	4	9	3	3	1	8	2	8	10	3	7	11	17
25	3	2	2	9	1	6	10	8	8	5	2	10	17
250	6	1	5	2	9	8	2	4	6	1	1	8
75	9	8	1	9	2	7	1	5	8	2	2	9	12
175	2	9	8	10	9	7	5	4	10	3	2	13	17
175	3	3	2	2	1	2	4	9	3	2	1	13
200	6	5	3	10	9	4	8	9	1	5	2	15	16
100	3	5	2	6	4	10	3	5	3	8	1	17
1	7	9	3	9	5	4	4	6	9	2	1	14
10	7	6	7	10	8	7	9	3	10	8	1	17
3	6	2	5	4	5	1	10	9	10	3	1	17
2	1	1	5	4	10	8	6	8	6	6	1	17
0	0	0	0	0	3	9	5	5	4	8	0
